CPXPARAM_MIP_Tolerances_MIPGap                   0
Tried aggregator 4 times.
MIP Presolve eliminated 78 rows and 2 columns.
MIP Presolve modified 114 coefficients.
Aggregator did 5 substitutions.
Reduced MIP has 265 rows, 177 columns, and 716 nonzeros.
Reduced MIP has 106 binaries, 0 generals, 0 SOSs, and 0 indicators.
Presolve time = 0.00 sec. (0.92 ticks)
Found incumbent of value 15.000000 after 0.02 sec. (2.43 ticks)
Probing time = 0.00 sec. (0.75 ticks)
Tried aggregator 1 time.
Reduced MIP has 265 rows, 177 columns, and 716 nonzeros.
Reduced MIP has 106 binaries, 0 generals, 0 SOSs, and 0 indicators.
Presolve time = 0.00 sec. (0.42 ticks)
Probing time = 0.02 sec. (0.59 ticks)
Clique table members: 236.
MIP emphasis: balance optimality and feasibility.
MIP search method: dynamic search.
Parallel mode: deterministic, using up to 8 threads.
Root relaxation solution time = 0.00 sec. (0.54 ticks)

        Nodes                                         Cuts/
   Node  Left     Objective  IInf  Best Integer    Best Bound    ItCnt     Gap

*     0+    0                           15.0000        2.0000            86.67%
*     0+    0                            7.0000        2.0000            71.43%
      0     0        2.0000     3        7.0000        2.0000       28   71.43%
      0     0        5.0000     3        7.0000      Cuts: 50       60   28.57%
*     0+    0                            5.0000        5.0000             0.00%
      0     0        cutoff              5.0000        5.0000       60    0.00%
Elapsed time = 0.13 sec. (6.53 ticks, tree = 0.01 MB, solutions = 3)

Clique cuts applied:  10
Implied bound cuts applied:  9
Mixed integer rounding cuts applied:  3

Root node processing (before b&c):
  Real time             =    0.13 sec. (6.54 ticks)
Parallel b&c, 8 threads:
  Real time             =    0.00 sec. (0.00 ticks)
  Sync time (average)   =    0.00 sec.
  Wait time (average)   =    0.00 sec.
                          ------------
Total (root+branch&cut) =    0.13 sec. (6.54 ticks)
